# Solution for model perspiration_srl_ilp
# Objective value = 8.9795031966728146e+01
Z_724_5_0 0
Z_724_5_1 0
Z_724_5_2 0
Z_724_5_3 0
Z_724_5_4 1
Z_724_0_0 0
Z_724_0_1 0
Z_724_0_2 0
Z_724_0_3 0
Z_724_0_4 1
Z_724_8_0 0
Z_724_8_1 0
Z_724_8_2 0
Z_724_8_3 0
Z_724_8_4 1
Z_724_1_0 0
Z_724_1_1 0
Z_724_1_2 0
Z_724_1_3 0
Z_724_1_4 1
Z_724_6_0 0
Z_724_6_1 0
Z_724_6_2 0
Z_724_6_3 0
Z_724_6_4 1
Z_724_10_0 0
Z_724_10_1 0
Z_724_10_2 0
Z_724_10_3 0
Z_724_10_4 1
Z_724_9_0 0
Z_724_9_1 0
Z_724_9_2 0
Z_724_9_3 0
Z_724_9_4 1
Z_724_3_0 0
Z_724_3_1 0
Z_724_3_2 0
Z_724_3_3 0
Z_724_3_4 1
Z_724_7_0 0
Z_724_7_1 0
Z_724_7_2 0
Z_724_7_3 0
Z_724_7_4 1
Z_724_4_0 0
Z_724_4_1 0
Z_724_4_2 0
Z_724_4_3 0
Z_724_4_4 1
Z_724_2_0 0
Z_724_2_1 0
Z_724_2_2 0
Z_724_2_3 0
Z_724_2_4 1
Z_6739_2_0 0
Z_6739_2_1 0
Z_6739_2_2 0
Z_6739_2_3 0
Z_6739_2_4 1
Z_6739_0_0 0
Z_6739_0_1 0
Z_6739_0_2 1
Z_6739_0_3 0
Z_6739_0_4 0
Z_6739_1_0 0
Z_6739_1_1 0
Z_6739_1_2 0
Z_6739_1_3 0
Z_6739_1_4 1
Z_2501_0_0 0
Z_2501_0_1 0
Z_2501_0_2 0
Z_2501_0_3 0
Z_2501_0_4 1
Z_2501_2_0 0
Z_2501_2_1 0
Z_2501_2_2 0
Z_2501_2_3 0
Z_2501_2_4 1
Z_2501_1_0 0
Z_2501_1_1 0
Z_2501_1_2 0
Z_2501_1_3 0
Z_2501_1_4 1
Z_2501_3_0 0
Z_2501_3_1 1
Z_2501_3_2 0
Z_2501_3_3 0
Z_2501_3_4 0
Z_6441_1_0 0
Z_6441_1_1 0
Z_6441_1_2 0
Z_6441_1_3 0
Z_6441_1_4 1
Z_6441_0_0 0
Z_6441_0_1 0
Z_6441_0_2 1
Z_6441_0_3 0
Z_6441_0_4 0
Z_6441_6_0 0
Z_6441_6_1 0
Z_6441_6_2 0
Z_6441_6_3 0
Z_6441_6_4 1
Z_6441_4_0 0
Z_6441_4_1 0
Z_6441_4_2 0
Z_6441_4_3 0
Z_6441_4_4 1
Z_6441_7_0 0
Z_6441_7_1 0
Z_6441_7_2 0
Z_6441_7_3 0
Z_6441_7_4 1
Z_6441_5_0 0
Z_6441_5_1 0
Z_6441_5_2 0
Z_6441_5_3 0
Z_6441_5_4 1
Z_6441_2_0 0
Z_6441_2_1 0
Z_6441_2_2 0
Z_6441_2_3 0
Z_6441_2_4 1
Z_6441_3_0 0
Z_6441_3_1 0
Z_6441_3_2 0
Z_6441_3_3 0
Z_6441_3_4 1
Z_6220_3_0 0
Z_6220_3_1 0
Z_6220_3_2 0
Z_6220_3_3 0
Z_6220_3_4 1
Z_6220_5_0 0
Z_6220_5_1 0
Z_6220_5_2 0
Z_6220_5_3 0
Z_6220_5_4 1
Z_6220_0_0 0
Z_6220_0_1 0
Z_6220_0_2 0
Z_6220_0_3 0
Z_6220_0_4 1
Z_6220_8_0 0
Z_6220_8_1 0
Z_6220_8_2 0
Z_6220_8_3 0
Z_6220_8_4 1
Z_6220_1_0 0
Z_6220_1_1 0
Z_6220_1_2 0
Z_6220_1_3 0
Z_6220_1_4 1
Z_6220_7_0 0
Z_6220_7_1 0
Z_6220_7_2 0
Z_6220_7_3 0
Z_6220_7_4 1
Z_6220_6_0 0
Z_6220_6_1 0
Z_6220_6_2 0
Z_6220_6_3 0
Z_6220_6_4 1
Z_6220_4_0 0
Z_6220_4_1 0
Z_6220_4_2 0
Z_6220_4_3 0
Z_6220_4_4 1
Z_4203_3_0 0
Z_4203_3_1 0
Z_4203_3_2 0
Z_4203_3_3 0
Z_4203_3_4 1
Z_4203_1_0 0
Z_4203_1_1 0
Z_4203_1_2 0
Z_4203_1_3 0
Z_4203_1_4 1
Z_4203_0_0 0
Z_4203_0_1 0
Z_4203_0_2 1
Z_4203_0_3 0
Z_4203_0_4 0
Z_4203_2_0 0
Z_4203_2_1 0
Z_4203_2_2 0
Z_4203_2_3 0
Z_4203_2_4 1
Z_1561_3_0 0
Z_1561_3_1 0
Z_1561_3_2 0
Z_1561_3_3 0
Z_1561_3_4 1
Z_1561_1_0 0
Z_1561_1_1 0
Z_1561_1_2 0
Z_1561_1_3 0
Z_1561_1_4 1
Z_1561_5_0 0
Z_1561_5_1 0
Z_1561_5_2 0
Z_1561_5_3 0
Z_1561_5_4 1
Z_1561_0_0 0
Z_1561_0_1 0
Z_1561_0_2 0
Z_1561_0_3 0
Z_1561_0_4 1
Z_1561_4_0 0
Z_1561_4_1 0
Z_1561_4_2 0
Z_1561_4_3 0
Z_1561_4_4 1
Z_1561_2_0 0
Z_1561_2_1 0
Z_1561_2_2 0
Z_1561_2_3 1
Z_1561_2_4 0
Z_1331_1_0 0
Z_1331_1_1 0
Z_1331_1_2 0
Z_1331_1_3 0
Z_1331_1_4 1
Z_1331_2_0 0
Z_1331_2_1 0
Z_1331_2_2 0
Z_1331_2_3 0
Z_1331_2_4 1
Z_1331_0_0 0
Z_1331_0_1 0
Z_1331_0_2 0
Z_1331_0_3 1
Z_1331_0_4 0
Z_1331_5_0 0
Z_1331_5_1 0
Z_1331_5_2 0
Z_1331_5_3 0
Z_1331_5_4 1
Z_1331_3_0 0
Z_1331_3_1 0
Z_1331_3_2 0
Z_1331_3_3 0
Z_1331_3_4 1
Z_1331_4_0 0
Z_1331_4_1 0
Z_1331_4_2 0
Z_1331_4_3 0
Z_1331_4_4 1
Z_269_6_0 0
Z_269_6_1 0
Z_269_6_2 0
Z_269_6_3 0
Z_269_6_4 1
Z_269_7_0 0
Z_269_7_1 0
Z_269_7_2 0
Z_269_7_3 0
Z_269_7_4 1
Z_269_1_0 0
Z_269_1_1 0
Z_269_1_2 0
Z_269_1_3 0
Z_269_1_4 1
Z_269_3_0 0
Z_269_3_1 0
Z_269_3_2 0
Z_269_3_3 0
Z_269_3_4 1
Z_269_5_0 0
Z_269_5_1 0
Z_269_5_2 0
Z_269_5_3 0
Z_269_5_4 1
Z_269_4_0 0
Z_269_4_1 0
Z_269_4_2 0
Z_269_4_3 0
Z_269_4_4 1
Z_269_0_0 0
Z_269_0_1 0
Z_269_0_2 0
Z_269_0_3 0
Z_269_0_4 1
Z_269_10_0 0
Z_269_10_1 0
Z_269_10_2 0
Z_269_10_3 0
Z_269_10_4 1
Z_269_8_0 0
Z_269_8_1 0
Z_269_8_2 0
Z_269_8_3 0
Z_269_8_4 1
Z_269_2_0 0
Z_269_2_1 0
Z_269_2_2 0
Z_269_2_3 0
Z_269_2_4 1
Z_269_9_0 0
Z_269_9_1 0
Z_269_9_2 0
Z_269_9_3 0
Z_269_9_4 1
Z_2278_0_0 0
Z_2278_0_1 0
Z_2278_0_2 0
Z_2278_0_3 0
Z_2278_0_4 1
Z_2278_3_0 0
Z_2278_3_1 0
Z_2278_3_2 0
Z_2278_3_3 0
Z_2278_3_4 1
Z_2278_4_0 0
Z_2278_4_1 0
Z_2278_4_2 0
Z_2278_4_3 0
Z_2278_4_4 1
Z_2278_2_0 0
Z_2278_2_1 0
Z_2278_2_2 0
Z_2278_2_3 0
Z_2278_2_4 1
Z_2278_5_0 0
Z_2278_5_1 0
Z_2278_5_2 0
Z_2278_5_3 0
Z_2278_5_4 1
Z_2278_1_0 0
Z_2278_1_1 0
Z_2278_1_2 0
Z_2278_1_3 0
Z_2278_1_4 1
Z_5105_0_0 0
Z_5105_0_1 0
Z_5105_0_2 1
Z_5105_0_3 0
Z_5105_0_4 0
Z_5105_3_0 0
Z_5105_3_1 0
Z_5105_3_2 0
Z_5105_3_3 0
Z_5105_3_4 1
Z_5105_1_0 0
Z_5105_1_1 0
Z_5105_1_2 0
Z_5105_1_3 0
Z_5105_1_4 1
Z_5105_2_0 0
Z_5105_2_1 0
Z_5105_2_2 0
Z_5105_2_3 0
Z_5105_2_4 1
